proyfinal/src/viki/013/experimentInOfficeAgust.take6.output/51741460-93fd-446c-a486-83651fdccfdb.als.out
Reading from standard input... Use '--help' for help.
============================[ Problem Statistics ]=============================
|                                                                             |
|  Number of variables:         87638                                         |
|  Number of clauses:          161767                                         |
|  Parse time:                   0.03 s                                       |
|                                                                             |
============================[ Search Statistics ]==============================
| Conflicts |          ORIGINAL         |          LEARNT          | Progress |
|           |    Vars  Clauses Literals |    Limit  Clauses Lit/Cl |          |
===============================================================================
|       100 |   62679   106220   265524 |    38947      100     10 | 28.480 % |
|       250 |   62659   106142   265337 |    42842      249    171 | 28.502 % |
|       475 |   62659   106142   265337 |    47126      474    176 | 28.502 % |
|       812 |   62659   106142   265337 |    51838      811    147 | 28.502 % |
|      1318 |   62659   106142   265337 |    57022     1317    122 | 28.502 % |
|      2077 |   62641   106030   265086 |    62725     1680    123 | 28.523 % |
|      3216 |   62623   105956   264915 |    68997     2818    138 | 28.544 % |
|      4924 |   62615   105924   264827 |    75897     4457    122 | 28.553 % |
|      7486 |   62577   105845   264645 |    83487     6760    107 | 28.596 % |
===============================================================================
restarts              : 34
conflicts             : 8388           (5709 /sec)
decisions             : 32432          (0.00 % random) (22076 /sec)
propagations          : 13801921       (9394577 /sec)
conflict literals     : 831358         (52.74 % deleted)
Memory used           : 30.58 MB
CPU time              : 1.46914 s

UNSATISFIABLE
